PARAMETER_FILE = even/LKH_uncomplete_graph/x10/de/par/random191.par
PROBLEM_FILE = even/LKH_uncomplete_graph/x10/de/mat/random191.tsp
Successes/Runs = 0/10
Cost.min = 1050, Cost.avg = 1050.00, Cost.max = 1050
Gap.min = 0.0000%, Gap.avg = 0.0000%, Gap.max = 0.0000%
Trials.min = 1000, Trials.avg = 1000.0, Trials.max = 1000
Time.min = 3.02 sec., Time.avg = 4.74 sec., Time.max = 5.07 sec.
Time.total = 47.58 sec.
请按任意键继续. . . 
